15 7 3 16 12 10 8 1 19 2 13 17 4 9 18 11 5 0 14 6  
15 7 3 12 16 2 13 9 10 1 19 4 8 5 0 17 14 18 11 6  
15 7 3 12 13 2 1 19 4 8 16 17 9 10 5 14 18 0 11 6  
15 7 3 12 16 2 10 1 19 4 9 5 8 13 11 18 17 0 14 6  
15 7 3 12 16 9 13 2 10 1 19 4 8 5 0 11 18 17 14 6  
15 7 3 16 12 17 10 8 1 19 4 2 13 9 5 11 18 0 14 6  
15 7 3 12 13 2 1 19 4 8 16 17 10 9 5 14 18 0 11 6  
15 7 3 12 16 2 13 9 10 1 19 4 8 17 11 5 6 18 0 14  
15 7 3 12 13 2 1 19 4 8 16 17 9 10 5 14 18 0 11 6  
15 7 3 12 13 2 1 19 4 8 16 17 9 10 11 5 18 0 14 6  
15 7 3 12 19 9 16 2 10 8 1 5 13 17 14 18 0 11 6 4  
15 7 3 12 16 9 13 2 10 1 19 4 8 17 0 18 11 5 14 6  
15 7 3 12 16 2 13 9 10 1 19 4 8 17 0 18 11 5 14 6  
15 7 3 16 12 10 8 1 19 2 13 17 4 9 18 11 5 0 14 6  
15 7 3 16 12 2 13 1 19 4 8 10 17 0 14 18 11 5 9 6  
15 7 3 12 16 9 19 2 10 8 1 5 13 17 0 14 18 11 6 4  
15 7 3 12 16 17 13 10 4 8 1 19 9 2 5 11 18 0 14 6  
15 7 3 12 16 2 13 9 10 1 19 4 8 17 11 5 18 0 14 6  
15 7 3 12 16 17 10 8 1 19 4 2 13 9 5 11 18 0 14 6  
15 7 3 12 16 2 13 9 10 1 19 4 18 8 17 0 11 5 6 14  
15 7 3 12 13 2 1 19 4 8 16 17 10 9 11 5 18 0 14 6  
15 7 3 12 16 2 13 1 19 4 8 9 10 17 11 5 18 0 14 6  
15 7 3 17 16 2 13 12 10 8 1 19 4 9 5 11 18 0 14 6  
15 7 3 12 16 9 13 2 10 1 19 4 8 17 0 18 11 5 14 6  
15 7 3 2 16 17 13 12 10 8 1 19 4 9 5 11 18 0 14 6  
15 7 3 12 16 10 2 1 19 17 9 13 4 8 18 0 11 5 14 6  
15 7 3 16 12 9 13 2 10 1 19 4 8 17 11 5 18 0 14 6  
15 7 3 17 16 2 10 8 1 19 9 5 13 12 0 11 18 14 6 4  
15 7 3 12 16 2 8 10 1 19 9 13 17 4 18 11 5 0 6 14  
15 7 3 12 16 2 10 1 19 4 8 5 9 13 11 18 17 0 14 6  
15 7 3 2 16 17 13 12 10 8 1 19 4 9 5 0 14 18 11 6  
15 7 3 12 16 2 1 13 19 4 8 10 9 17 5 0 14 18 11 6  
15 7 3 12 13 2 1 19 4 8 16 9 10 17 11 5 18 0 14 6  
15 7 3 12 16 2 1 13 19 4 9 5 8 11 10 18 17 0 14 6  
15 7 3 16 12 17 13 10 4 8 1 19 9 2 5 11 18 0 14 6  
15 7 3 12 13 2 1 19 4 8 16 17 10 9 11 5 18 0 14 6  
15 7 3 12 16 2 10 8 1 19 17 13 9 5 0 11 18 14 6 4  
15 7 3 12 16 2 8 10 1 19 9 13 17 4 5 0 11 18 14 6  
15 7 3 16 17 2 13 12 10 1 19 9 5 14 0 18 8 11 6 4  
